WARNING: for repeatability, setting FPU to use double precision
============================[ Problem Statistics ]=============================
|                                                                             |
|  Number of variables:           254                                         |
|  Number of clauses:             933                                         |
|  Parse time:                   0.00 s                                       |
|                                                                             |
============================[ Search Statistics ]==============================
| Conflicts |          ORIGINAL         |          LEARNT          | Progress |
|           |    Vars  Clauses Literals |    Limit  Clauses Lit/Cl |          |
===============================================================================
===============================================================================
restarts              : 1
conflicts             : 38             (inf /sec)
decisions             : 53             (0.00 % random) (inf /sec)
propagations          : 1765           (inf /sec)
conflict literals     : 113            (20.42 % deleted)
Memory used           : 19.00 MB
CPU time              : 0 s

UNSATISFIABLE
